0 24
0 25
0 101
0 115
0 139
0 144
0 153
0 160
0 181
0 195
0 197
0 204
0 206
0 207
0 210
0 213
0 219
0 224
0 257
0 267
0 279
0 289
0 291
0 304
0 314
0 315
0 317
0 325
0 327
0 346
0 347
0 348
0 349
0 354
0 356
0 360
0 374
0 375
0 380
0 388
0 425
0 426
0 427
0 428
0 429
0 430
0 431
0 432
0 433
0 434
0 435
0 437
0 440
0 448
0 453
0 461
0 467
0 475
0 485
0 500
0 503
0 650
0 651
0 652
0 653
0 654
0 655
0 656
0 657
0 658
0 659
0 660
0 661
0 662
0 663
0 664
0 665
0 666
0 667
0 668
0 669
0 670
0 671
0 672
0 673
0 674
0 675
0 676
0 677
0 678
0 679
0 680
0 681
0 682
0 683
0 684
0 685
0 686
0 687
0 688
0 689
0 690
0 691
0 692
0 693
0 694
0 695
0 696
0 697
0 698
0 699
0 700
0 701
0 702
0 703
0 704
0 705
0 706
0 707
0 708
0 709
0 710
0 711
0 712
0 713
0 714
0 715
0 716
0 717
0 718
0 719
0 720
0 721
0 722
0 723
0 724
0 725
0 726
0 727
0 728
0 729
0 730
0 731
0 732
0 733
0 734
0 735
0 736
0 737
0 738
0 739
0 740
0 741
0 742
0 743
0 744
0 745
0 746
0 747
0 748
0 749
0 750
0 751
0 752
0 753
0 754
0 755
0 756
0 757
0 758
0 759
0 760
0 761
0 762
0 763
0 764
0 765
0 766
0 767
0 768
0 769
0 770
0 771
0 772
0 773
0 774
0 775
0 776
0 777
0 778
0 779
0 780
0 781
0 782
0 783
0 784
0 785
0 786
0 787
0 788
0 789
0 790
0 791
0 792
0 793
0 794
0 795
0 796
0 797
0 798
0 799
0 800
0 801
0 802
0 803
0 804
0 805
0 806
0 807
0 808
0 809
0 810
0 811
0 812
0 813
0 814
0 815
0 816
0 817
0 818
0 819
0 820
0 821
0 822
0 823
0 824
0 825
1 26
1 63
1 73
1 169
1 205
1 212
1 276
1 304
1 498
1 521
2 79
3 36
3 92
3 122
3 138
3 151
3 153
3 160
3 164
3 174
3 183
3 184
3 187
3 190
3 194
3 212
3 214
3 216
3 246
3 248
3 249
3 256
3 287
3 298
3 333
3 359
3 418
3 495
3 614
3 615
3 616
3 617
3 618
3 619
3 620
3 621
4 160
4 182
4 183
4 197
4 220
4 224
4 238
4 522
4 523
5 7
5 22
5 165
5 170
5 197
5 239
5 240
5 316
5 398
5 478
5 479
5 961
5 962
5 963
6 57
6 133
6 151
6 181
6 194
6 214
6 221
6 222
6 233
6 549
6 550
6 551
6 552
6 553
6 554
7 22
7 200
7 213
7 239
7 257
7 351
7 400
7 831
7 832
8 158
8 203
8 211
8 213
8 257
8 319
8 388
8 443
8 476
8 862
8 863
8 864
8 865
8 866
8 867
9 48
9 56
9 84
9 260
9 261
9 270
9 271
9 293
9 294
9 295
9 336
9 340
9 341
9 407
9 408
9 520
10 113
10 123
10 212
10 219
10 371
10 372
10 382
11 289
11 331
12 139
12 258
12 404
12 416
12 537
12 538
13 186
13 371
13 409
14 16
14 85
14 174
14 190
14 490
15 45
15 112
15 322
15 395
15 401
15 442
15 860
15 861
16 190
16 490
16 973
17 170
17 204
17 205
17 329
17 501
17 989
18 197
18 203
18 213
18 260
18 261
18 270
18 271
18 289
18 293
18 295
18 347
18 350
18 381
18 410
18 414
18 432
18 445
18 480
18 509
18 510
18 511
18 512
18 513
18 514
18 515
18 516
19 22
19 197
19 239
19 240
19 257
19 279
19 307
19 314
19 445
19 869
19 870
19 871
19 872
19 873
19 874
19 875
20 158
20 330
20 504
21 26
21 136
21 309
21 315
21 316
21 361
21 379
21 494
22 46
22 143
22 165
22 179
22 180
22 203
22 239
22 240
22 307
22 446
23 32
23 203
23 219
23 223
23 313
23 324
23 626
24 441
24 842
24 843
24 844
24 845
24 846
24 847
24 848
24 849
24 850
24 851
24 852
24 853
24 854
24 855
24 856
24 857
24 858
24 859
25 49
25 52
25 110
25 152
25 205
25 219
25 230
25 231
25 236
25 252
25 253
25 272
25 308
25 312
25 313
25 317
25 323
25 337
25 347
25 349
25 354
25 355
25 356
25 357
25 372
25 383
25 426
25 427
25 428
25 431
25 434
25 436
25 439
25 444
25 454
25 468
25 563
25 564
25 565
25 566
25 567
25 568
25 569
25 570
25 571
25 572
25 573
25 574
25 575
25 576
25 577
25 578
25 579
26 62
26 154
27 45
27 170
27 197
27 213
27 253
27 288
27 327
27 398
27 399
27 400
27 401
27 402
27 499
27 500
27 986
27 987
27 988
28 118
28 144
28 152
28 197
28 291
28 404
28 993
28 994
28 995
28 996
28 997
28 998
28 999
29 182
29 203
29 324
29 346
29 649
30 151
30 152
30 265
30 312
30 313
30 374
30 375
30 404
30 471
30 940
30 941
30 942
30 943
30 944
30 945
30 946
30 947
30 948
30 949
31 49
31 57
31 68
31 87
31 151
31 174
31 194
31 196
31 526
32 151
32 174
32 181
32 219
32 231
32 265
32 337
32 338
32 357
32 367
32 429
32 473
33 41
33 183
33 188
33 212
33 219
33 230
33 251
33 266
33 376
33 473
33 952
34 58
34 169
34 170
34 182
34 213
34 327
34 346
35 370
35 470
35 478
35 548
36 51
36 54
36 122
36 128
36 138
36 155
36 157
36 160
36 164
36 174
36 187
36 190
36 198
36 206
36 210
36 216
36 218
36 227
36 248
36 249
36 256
36 259
36 262
36 264
36 267
36 275
36 278
36 285
36 287
36 305
36 306
36 321
36 333
36 352
36 391
36 393
37 51
37 63
37 117
37 128
37 138
37 151
37 152
37 153
37 160
37 183
37 205
37 212
37 214
37 224
37 233
37 287
37 325
37 396
37 495
37 496
37 982
37 983
37 984
37 985
38 276
39 82
39 140
39 153
39 160
39 184
39 201
39 206
39 212
39 215
39 252
39 254
39 256
39 272
39 290
39 301
39 308
39 409
39 412
39 517
39 518
39 519
40 78
40 99
40 106
40 283
40 284
40 389
40 390
40 896
40 897
40 898
40 899
40 900
40 901
41 69
41 126
41 153
41 161
41 183
41 188
41 251
41 266
41 326
41 376
41 402
41 497
41 938
41 939
42 170
42 223
42 252
42 331
43 170
43 250
43 447
44 53
44 58
44 223
45 100
45 112
45 169
45 170
45 203
45 252
45 253
45 322
45 323
45 395
45 492
45 976
45 977
45 978
46 314
46 351
46 628
47 101
47 115
47 137
47 144
47 190
47 195
47 198
47 206
47 207
47 216
47 237
47 247
47 264
47 268
47 291
47 310
47 311
47 332
47 334
47 335
47 362
47 363
47 364
47 365
47 366
47 367
47 368
47 369
47 405
47 462
47 463
47 464
47 465
47 466
47 919
47 920
47 921
47 922
47 923
47 924
47 925
47 926
47 927
47 928
47 929
47 930
47 931
47 932
48 84
48 260
48 261
48 270
48 271
48 293
48 294
48 295
48 336
48 340
48 341
48 407
48 408
49 57
49 77
49 87
49 123
49 151
49 153
49 174
49 194
49 196
49 222
49 243
49 244
49 245
49 263
50 203
50 211
50 374
50 415
50 505
50 506
50 507
50 508
51 54
51 108
51 117
51 128
51 138
51 153
51 155
51 157
51 160
51 164
51 174
51 218
51 244
51 249
51 259
51 287
52 63
52 181
52 205
52 214
52 230
52 377
52 459
52 904
52 905
52 906
52 907
52 908
52 909
52 910
52 911
52 912
52 913
53 61
53 230
54 108
54 117
54 138
54 151
54 155
54 157
54 160
54 164
54 183
54 187
54 212
54 218
54 224
54 227
54 243
54 259
54 278
54 316
54 457
54 593
54 594
54 595
54 596
55 170
55 182
55 213
55 220
55 257
55 399
55 529
55 530
55 531
55 532
55 533
56 261
56 270
56 293
56 294
56 295
56 340
56 341
56 414
57 61
57 68
57 77
57 87
57 123
57 151
57 174
57 194
57 196
57 222
57 227
57 244
57 245
57 263
58 79
58 83
58 106
58 121
58 136
58 176
58 235
59 211
59 471
59 536
60 85
60 358
60 455
60 456
60 459
61 77
61 123
61 151
61 174
61 194
61 196
61 222
61 227
61 233
61 244
61 245
61 263
61 344
62 282
62 373
63 64
63 102
63 139
63 151
63 162
63 167
63 194
64 153
64 156
64 230
64 272
64 308
64 312
64 396
65 204
65 443
65 840
65 841
66 88
66 181
66 205
66 229
66 377
67 241
67 435
67 481
67 582
67 583
68 174
68 196
68 244
68 245
68 876
68 877
69 161
69 183
69 188
69 266
69 328
70 82
70 118
70 147
70 184
70 201
70 215
70 254
70 290
70 412
70 584
70 585
71 370
71 469
72 124
72 348
72 350
72 559
72 560
72 561
73 148
73 183
73 225
73 252
73 326
73 397
73 497
73 498
74 223
74 286
74 309
74 330
75 80
75 107
75 124
75 131
75 153
75 190
75 195
75 198
75 206
75 212
75 216
75 232
75 303
75 345
75 600
76 204
76 299
76 422
76 627
77 123
77 151
77 174
77 194
77 196
77 222
77 227
77 244
77 245
77 263
77 344
78 99
78 106
78 163
78 283
78 284
78 320
78 389
78 390
79 197
79 439
80 122
80 124
80 153
80 160
80 190
80 195
80 198
80 216
80 246
80 248
80 255
80 256
80 264
80 285
80 291
80 297
80 302
80 304
80 321
80 342
80 393
80 419
80 597
81 232
81 242
81 281
81 318
81 387
81 484
82 122
82 140
82 145
82 147
82 173
82 201
82 208
82 215
82 249
82 254
82 274
82 290
82 298
82 300
82 301
82 339
82 403
82 581
83 169
83 213
83 474
84 260
84 261
84 270
84 271
84 294
84 336
85 358
85 455
85 456
85 629
85 630
86 91
86 124
86 160
86 210
86 273
86 285
86 296
86 302
86 305
86 342
86 343
86 345
86 612
86 613
87 151
87 174
87 194
87 196
87 222
88 127
88 139
88 168
88 482
89 170
89 182
89 220
89 288
89 485
89 486
89 966
89 967
89 968
89 969
89 970
90 204
90 358
90 380
90 539
90 540
90 541
90 542
90 543
90 544
90 545
90 546
90 547
91 124
91 190
91 210
91 226
91 255
91 262
91 273
91 275
91 296
91 297
91 303
91 306
91 321
91 359
91 392
91 419
91 420
91 622
91 623
91 624
92 147
92 153
92 174
92 184
92 187
92 199
92 201
92 215
92 256
92 298
92 306
92 421
92 625
93 170
93 238
93 288
93 289
93 460
94 170
94 182
94 189
94 399
94 472
95 181
95 230
95 231
96 212
96 326
96 397
96 440
96 833
96 834
96 835
96 836
96 837
96 838
96 839
97 136
97 315
97 379
97 953
97 954
97 955
97 956
97 957
97 958
97 959
98 104
98 232
98 242
98 281
98 318
98 384
98 385
98 386
98 387
98 484
99 106
99 163
99 283
99 284
99 320
100 112
100 253
100 322
100 395
100 442
100 492
100 555
100 556
101 115
101 118
101 137
101 144
101 172
101 190
101 195
101 198
101 206
101 207
101 216
101 247
101 264
101 268
101 310
101 311
101 332
101 334
101 335
101 362
101 363
101 364
101 365
101 366
101 367
101 368
101 405
101 462
101 465
101 466
102 151
102 152
102 153
102 181
102 188
102 230
102 231
102 337
103 460
103 601
103 602
103 603
103 604
103 605
103 606
103 607
104 181
104 205
104 232
104 242
104 313
104 386
105 170
105 475
106 163
106 182
106 283
106 284
106 320
106 389
106 449
106 450
106 451
107 124
107 255
107 264
107 392
108 122
108 138
108 144
108 153
108 157
108 160
108 187
108 207
108 214
108 218
108 224
108 249
108 258
108 278
108 325
108 457
108 458
109 202
109 221
109 487
109 488
109 489
109 971
109 972
110 219
110 253
110 265
110 308
110 317
110 323
110 354
110 355
110 356
110 357
110 372
110 383
110 401
110 402
110 454
110 894
110 895
111 220
111 223
111 446
112 322
112 323
112 879
114 238
114 348
114 632
114 633
114 634
114 635
114 636
114 637
115 144
115 207
115 247
115 310
115 335
115 365
115 448
115 449
115 450
115 451
115 452
115 453
115 880
115 881
115 882
115 883
115 884
115 885
115 886
115 887
115 888
115 889
115 890
115 891
115 892
115 893
116 118
116 147
116 184
116 201
116 215
116 274
116 290
116 300
116 301
116 631
117 122
117 128
117 155
117 157
117 187
117 218
117 224
117 830
118 144
118 184
118 190
118 195
118 198
118 206
118 216
118 268
118 273
118 598
119 197
119 257
119 350
119 375
119 438
119 829
120 232
120 242
120 281
120 318
120 384
120 385
120 386
120 477
121 152
121 220
121 243
121 608
122 131
122 153
122 155
122 157
122 164
122 174
122 187
122 218
122 224
122 325
122 359
122 360
122 902
122 903
123 194
123 196
123 222
123 245
123 344
124 131
124 198
124 246
124 255
124 273
124 302
124 303
124 345
125 197
125 370
125 467
125 468
125 469
125 470
125 502
125 933
125 934
125 935
125 936
125 937
126 188
126 251
126 326
126 397
127 192
127 406
127 482
128 153
128 155
128 157
128 160
128 187
128 218
128 224
128 259
129 265
129 338
129 378
130 153
130 181
130 219
130 411
130 557
130 558
131 190
131 195
131 198
131 206
131 255
131 262
131 267
131 273
131 275
131 296
131 305
131 369
131 394
131 491
131 580
132 279
132 288
132 461
132 915
132 916
132 917
132 918
133 233
133 244
133 248
134 319
134 388
135 252
135 272
135 483
135 644
135 645
135 646
135 647
135 648
136 169
136 309
136 315
136 361
136 379
136 826
136 827
137 190
137 195
137 198
137 206
137 216
137 275
137 310
137 311
137 332
137 334
137 363
137 364
137 368
137 463
137 464
137 525
138 155
138 157
138 160
138 187
138 218
138 224
138 278
139 152
139 153
139 204
139 214
139 229
139 258
139 299
139 562
140 145
140 184
140 201
140 215
140 249
140 254
140 301
140 303
140 305
140 339
140 413
141 232
141 242
141 281
141 318
141 385
141 437
141 477
142 203
142 319
142 878
143 324
143 331
143 493
143 979
143 980
144 164
144 172
144 190
144 195
144 198
144 206
144 207
144 216
144 247
144 267
144 268
144 269
144 277
144 291
144 333
144 334
144 335
144 405
144 503
145 215
145 254
145 302
145 339
145 342
145 343
145 430
145 586
145 587
145 588
145 589
146 153
146 212
146 221
146 276
146 329
146 424
146 642
146 643
147 184
147 201
147 208
147 215
147 274
147 297
148 225
148 638
148 639
148 640
148 641
149 190
149 210
149 216
149 246
149 262
149 267
149 275
149 304
149 333
149 360
149 391
149 413
149 420
149 527
149 528
150 296
150 590
150 591
150 592
151 171
152 171
152 189
152 225
152 265
154 282
155 157
155 160
155 164
155 187
155 218
155 224
155 259
156 204
156 609
156 610
156 611
157 164
157 187
157 218
157 259
158 476
159 190
159 198
159 246
159 264
159 285
159 321
159 391
159 392
159 393
159 394
159 491
159 974
159 975
160 173
160 234
160 269
160 277
161 183
161 188
161 251
161 266
162 205
162 214
162 228
162 231
163 283
163 284
164 249
164 278
165 240
165 307
166 438
167 183
167 221
167 251
167 328
168 192
168 406
168 417
169 176
169 180
171 181
171 205
171 221
171 411
171 524
172 183
172 195
172 206
172 210
172 255
172 262
172 306
172 394
173 195
173 206
173 210
173 226
175 330
175 990
175 991
175 992
176 221
177 229
177 238
177 425
178 182
178 279
178 331
178 914
179 314
179 472
179 474
179 479
179 950
179 951
180 182
180 197
180 981
183 189
184 208
185 211
185 250
185 279
186 371
186 382
187 199
188 189
191 384
191 387
191 535
192 286
193 211
193 380
195 269
195 277
198 277
199 298
199 421
200 204
202 487
202 488
202 489
207 247
207 311
207 362
207 366
208 215
208 246
208 534
209 241
209 481
209 501
210 226
217 353
217 416
225 265
226 246
226 267
226 369
226 599
232 234
234 242
234 281
235 250
235 353
235 499
236 349
236 355
236 436
236 828
237 327
237 444
237 868
241 960
247 268
247 332
248 292
252 423
280 317
280 383
280 483
280 964
280 965
292 352
